100
128
23
28
48
53
53
50
15
27
56
32
56
37
4
10
1
50
56
59
31
38
46
29
6
6
55
31
60
35
43
29
4
62
45
49
54
21
22
3
4
3
21
1
47
21
37
39
2
44
63
41
60
45
33
1
21
46
39
51
5
37
3
57
59
1
29
28
34
53
45
1
25
42
53
57
55
7
51
5
51
58
29
6
40
2
3
38
30
50
52
25
35
6
24
14
44
56
64
9
32
40